89
150
120	6
119	9
118	3
117	4
116	2
115	2
114	3
113	4
112	3
111	2
110	5
109	2
108	3
107	8
106	2
104	6
103	4
102	5
101	2
100	2
99	3
98	4
97	3
96	4
95	5
94	2
93	4
92	1
91	4
90	2
89	2
88	1
87	4
86	5
85	2
84	6
83	2
82	7
81	2
80	3
79	3
78	4
77	2
76	2
75	7
74	5
73	1
72	4
71	4
70	4
69	5
68	1
67	5
66	3
65	4
64	1
63	6
62	5
61	3
60	4
59	2
58	1
57	2
56	2
55	5
54	2
53	3
52	6
51	2
50	2
49	2
48	1
47	2
46	6
45	3
44	2
43	4
42	2
41	3
40	2
39	2
38	2
37	7
36	2
35	4
34	2
33	5
31	4
30	2
